rect_size = array1d(1..1, [|3,3|3,3|3,5|5,3|5,3|3,5|5,5|5,5|]);

rect_offset = array1d(1..1, [|0,0 |0,0 |0,0 |0,0 ||0,0 |0,0 |0,0 |0,0 |]);

shape = array1d(1..8, [{1}, {2}, {3}, {4}, {5}, {6}, {7}, {8}]);

valid_shapes = array1d(1..4, [{1,2}, {3,4}, {5,6}, {7,8}]);

w = 8;

n = 4;

